%%% static parameters %%%
timespan = 1;
Fact = [4];
Distr1 = [15];
Distr2 = [30];
Clients_N = [1000];
Demand_W = [15];
Lt0 = [4];
Lt1 = [4];
SS_ = [0.85];
DS_D = [8];
K = [200];
MA = [500];
%%% dynamic parameters %%%
lost_ratio_sales_ret_th = 0.9318923194260731;
lost_ratio_sales_ret_w = 2;
lost_ratio_sales_dis_th = 0.013814463042099434;
lost_ratio_sales_dis_w = 42;
lost_ratio_sales_fac_th = 0.7808713840796233;
lost_ratio_sales_fac_w = 87;
stock_customer_MA_mean_relative_th = 0.01744274285366587;
stock_customer_MA_mean_relative_w = 42;
stock_distributor_MA_mean_relative_th = 0.9095518588272903;
stock_distributor_MA_mean_relative_w = 13;
stock_retailer_MA_mean_relative_th = 0.362617832525824;
stock_retailer_MA_mean_relative_w = 40;
stock_factory_MA_mean_relative_th = 0.9262582312237014;
stock_factory_MA_mean_relative_w = 55;
